(set-logic QF_S)
(declare-fun var0 () String)
(declare-fun var1 () Int)
(declare-fun var2 () Int)
(declare-fun var3 () String)
(declare-fun var4 () Int)
(declare-fun var5 () Int)
(declare-fun var6 () String)
(declare-fun var7 () String)
(assert (str.contains (str.substr var0 var1 var2) (str.substr var3 var4 var5)))
(assert (>= (str.len (str.at var6 var4)) (str.indexof var7 var3 var2)))
(assert (> (str.indexof var7 var3 var1) (str.indexof var3 var7 var5)))
(assert (str.prefixof (str.replace (str.at var6 var5) (str.substr var0 71 34) (str.substr var6 var4 var4)) (str.substr (str.at var3 var2) (str.indexof var3 var3 var1) (str.indexof var7 var7 var5))))
(check-sat)